c ind 1 2 3 4 5 6 7 8 9 10 11 12 13 14 15 16 17 0
p cnf 42 45                 
-6 1 -18 0
18 -23 0
-7 2 -19 0
19 -23 0
-8 3 -20 0
20 -23 0
-9 4 -21 0
21 -23 0
-10 5 -22 0
22 -23 0
23 -32 0
6 7 8 9 10 11 -24 0
24 -32 0
-12 1 -25 0
25 -30 0
-13 2 -26 0
26 -30 0
-14 3 -27 0
27 -30 0
-15 4 -28 0
28 -30 0
-16 5 -29 0
29 -30 0
30 -32 0
12 13 14 15 16 17 -31 0
31 -32 0
32 42 0
11 -40 0
-12 6 -33 0
33 -39 0
-13 7 -34 0
34 -39 0
-14 8 -35 0
35 -39 0
-15 9 -36 0
36 -39 0
-16 10 -37 0
37 -39 0
-17 11 -38 0
38 -39 0
39 -40 0
40 41 0
-17 41 0
-41 42 0
-42 0
